n = 35;
m = 67;
w = [7,7,6,3,10,5,8,2,6,10,10,5,1,5,9,7,2,1,2,9,7,5,1,8,1,6,3,9,8,7,7,1,6,7,6,1,9,9,6,10,4,10,10,1,1,8,7,9,1,2,5,2,10,3,10,3,7,4,10,9,5,5,1,4,3,9,9];
edges = array2d(1..m, 1..2, [1,13,1,16,1,24,1,27,2,21,3,7,3,10,3,12,3,17,3,30,3,32,4,9,4,18,4,27,4,28,4,34,5,12,5,13,5,20,6,9,6,17,6,27,7,9,7,19,7,29,8,15,8,17,8,22,8,34,9,16,10,21,10,31,11,24,11,29,12,23,12,35,13,18,13,23,13,24,13,27,14,19,14,22,15,18,15,21,16,29,17,23,17,32,18,25,18,31,19,24,20,27,20,33,21,25,22,23,22,27,22,30,23,25,23,28,23,29,24,33,27,31,27,32,28,32,29,30,30,31,32,34,33,34]);
